c FILE /home/rafael/Documents/HappySet/MIHS/inputs/happygen/output/graph_d_regular_k3_p0.3_v100_20241127_084015.txt
c SOURCE This is a d-regular graph formed for the happy graph colouring problem.
c DESCRIPTION It was generated using the problem generator of Rhyd Lewis
c
c GRAPH STATS
c Seed                             = 1681544911
c Number of Nodes                  = 100
c Number of colours k              = 3
c Number of pre-assignments        = 30
c Degree of all vertices           = 6
c Density                          = 0.0606061
c 
c The degrees of nodes 1 to 100, respectively, are as follows 
c [6, 6, 6, 6, 6, 6, 6, 6, 6, 6, 6, 6, 6, 6, 6, 6, 6, 6, 6, 6, 6, 6, 6, 6, 6, 6, 
c  6, 6, 6, 6, 6, 6, 6, 6, 6, 6, 6, 6, 6, 6, 6, 6, 6, 6, 6, 6, 6, 6, 6, 6, 6, 
c  6, 6, 6, 6, 6, 6, 6, 6, 6, 6, 6, 6, 6, 6, 6, 6, 6, 6, 6, 6, 6, 6, 6, 6, 6, 
c  6, 6, 6, 6, 6, 6, 6, 6, 6, 6, 6, 6, 6, 6, 6, 6, 6, 6, 6, 6, 6, 6, 6, 6] 
c  
p edge 100 300 3
e 1 5
e 1 41
e 1 45
e 1 80
e 1 89
e 1 92
e 2 3
e 2 19
e 2 40
e 2 71
e 2 82
e 2 98
e 3 26
e 3 27
e 3 35
e 3 82
e 3 89
e 4 6
e 4 13
e 4 21
e 4 33
e 4 91
e 4 95
e 5 10
e 5 22
e 5 23
e 5 37
e 5 97
e 6 38
e 6 70
e 6 82
e 6 90
e 6 98
e 7 32
e 7 49
e 7 51
e 7 68
e 7 71
e 7 93
e 8 9
e 8 37
e 8 45
e 8 57
e 8 85
e 8 97
e 9 36
e 9 40
e 9 64
e 9 88
e 9 100
e 10 33
e 10 53
e 10 54
e 10 60
e 10 69
e 11 27
e 11 29
e 11 31
e 11 46
e 11 81
e 11 92
e 12 18
e 12 34
e 12 42
e 12 53
e 12 54
e 12 82
e 13 18
e 13 20
e 13 39
e 13 73
e 13 99
e 14 27
e 14 47
e 14 61
e 14 62
e 14 73
e 14 100
e 15 18
e 15 30
e 15 38
e 15 53
e 15 66
e 15 87
e 16 17
e 16 21
e 16 33
e 16 45
e 16 58
e 16 78
e 17 23
e 17 43
e 17 60
e 17 64
e 17 87
e 18 19
e 18 72
e 18 94
e 19 51
e 19 74
e 19 87
e 19 90
e 20 43
e 20 53
e 20 72
e 20 84
e 20 93
e 21 30
e 21 67
e 21 91
e 21 93
e 22 41
e 22 81
e 22 84
e 22 99
e 22 100
e 23 26
e 23 50
e 23 52
e 23 60
e 24 50
e 24 52
e 24 65
e 24 76
e 24 81
e 24 94
e 25 32
e 25 69
e 25 76
e 25 77
e 25 79
e 25 100
e 26 44
e 26 63
e 26 76
e 26 84
e 27 28
e 27 80
e 27 83
e 28 46
e 28 52
e 28 54
e 28 55
e 28 64
e 29 31
e 29 42
e 29 56
e 29 75
e 29 89
e 30 38
e 30 85
e 30 89
e 30 95
e 31 36
e 31 62
e 31 85
e 31 89
e 32 49
e 32 66
e 32 86
e 32 91
e 33 42
e 33 47
e 33 49
e 34 36
e 34 39
e 34 44
e 34 67
e 34 75
e 35 41
e 35 44
e 35 54
e 35 59
e 35 84
e 36 60
e 36 65
e 36 83
e 37 55
e 37 57
e 37 58
e 37 93
e 38 49
e 38 63
e 38 82
e 39 44
e 39 50
e 39 94
e 39 96
e 40 52
e 40 59
e 40 64
e 40 90
e 41 42
e 41 46
e 41 54
e 42 43
e 42 79
e 43 65
e 43 91
e 43 96
e 44 77
e 44 97
e 45 48
e 45 65
e 45 73
e 46 55
e 46 56
e 46 63
e 47 48
e 47 50
e 47 59
e 47 93
e 48 57
e 48 61
e 48 77
e 48 85
e 49 70
e 49 88
e 50 68
e 50 90
e 51 60
e 51 73
e 51 87
e 51 92
e 52 69
e 52 81
e 53 58
e 53 88
e 54 92
e 55 77
e 55 79
e 55 99
e 56 61
e 56 63
e 56 65
e 56 89
e 57 61
e 57 70
e 57 93
e 58 61
e 58 74
e 58 98
e 59 62
e 59 65
e 59 88
e 60 85
e 61 72
e 62 66
e 62 74
e 62 99
e 63 78
e 63 86
e 64 86
e 64 97
e 66 78
e 66 85
e 66 91
e 67 69
e 67 78
e 67 86
e 67 92
e 68 69
e 68 80
e 68 84
e 68 99
e 69 80
e 70 75
e 70 81
e 70 92
e 71 73
e 71 79
e 71 87
e 71 97
e 72 73
e 72 94
e 72 99
e 74 75
e 74 78
e 74 83
e 75 90
e 75 95
e 76 84
e 76 86
e 76 98
e 77 81
e 77 95
e 78 79
e 79 100
e 80 83
e 80 96
e 82 88
e 83 91
e 83 100
e 86 95
e 87 94
e 88 96
e 90 94
e 95 98
e 96 97
e 96 98
n 4 2
n 5 3
n 9 2
n 10 3
n 16 3
n 17 3
n 19 3
n 23 3
n 24 2
n 25 3
n 27 2
n 28 2
n 30 1
n 35 3
n 38 1
n 41 3
n 47 1
n 48 1
n 55 2
n 57 1
n 65 2
n 71 3
n 72 2
n 75 3
n 78 3
n 80 2
n 82 1
n 87 3
n 89 1
n 99 2
